0 0 0 0
0 1 1 0
0 2 0 0
0 3 0 0
0 4 0 1
0 5 1 5
0 6 1 1
0 7 0 3
0 8 1 10
0 9 1 15
0 10 1 10
0 11 0 10
0 12 2 1
0 13 2 12
0 14 1 5
0 15 1 11
0 16 0 16
0 17 0 23
0 18 0 21
0 19 2 12
0 20 1 25
0 21 1 15
0 22 0 24
0 23 0 24
0 24 0 23
0 25 0 26
0 26 0 20
0 27 0 27
0 28 0 31
0 29 0 30
0 30 1 28
0 31 0 34
